Problem:    
Rows:       195
Columns:    69 (54 integer, 54 binary)
Non-zeros:  710
Status:     INTEGER OPTIMAL
Objective:  value = 121.10277 (MINimum)

   No.   Row name        Activity     Lower bound   Upper bound
------ ------------    ------------- ------------- -------------
     1 r.5                   121.103             0               
     2 r.6                  -952.586      -971.549               
     3 r.7                    1121.1             0               
     4 r.8                  -878.897      -952.104               
     5 r.9                    1121.1             0               
     6 r.10                 -898.625      -965.966               
     7 r.11                  121.103             0               
     8 r.12                  101.375      -953.793               
     9 r.13                   1121.1             0               
    10 r.14                  -932.66      -973.123               
    11 r.15                  121.103             0               
    12 r.16                  101.375      -950.417               
    13 r.17                   1121.1             0               
    14 r.18                 -959.537      -978.499               
    15 r.19                  121.103             0               
    16 r.20                 -953.705      -972.667               
    17 r.21                  121.103             0               
    18 r.22                  110.531      -974.833               
    19 r.23                   1121.1             0               
    20 r.24                  -935.99      -964.289               
    21 r.25                   1121.1             0               
    22 r.26                 -989.855      -989.855               
    23 r.27                  121.103             0               
    24 r.28                 -941.662      -941.662               
    25 r.29                   1121.1             0               
    26 r.30                 -878.897      -980.272               
    27 r.31                  121.103             0               
    28 r.32                  121.103      -971.372               
    29 r.33                        1             1             = 
    30 r.34                        1             1             = 
    31 r.35                        1             1             = 
    32 r.36                        1             1             = 
    33 r.37                        1             1             = 
    34 r.38                        1             1             = 
    35 r.39                        1             1             = 
    36 r.40                     1001             2               
    37 r.41                    -1001         -1001               
    38 r.42                  3053.96      -965.966               
    39 r.43                     1001             2               
    40 r.44                    -1001         -1001               
    41 r.45                  1980.27      -953.793               
    42 r.46                     1001             2               
    43 r.47                    -1001         -1001               
    44 r.48                  2019.93      -973.123               
    45 r.49                     1001             2               
    46 r.50                    -1001         -1001               
    47 r.51                  1980.27      -950.417               
    48 r.52                     1001             2               
    49 r.53                    -1001         -1001               
    50 r.54                  2993.05      -978.499               
    51 r.55                     1001             2               
    52 r.56                    -1001         -1001               
    53 r.57                  925.193      -972.667               
    54 r.58                     1000             2               
    55 r.59                    -1000         -1001               
    56 r.60                  3063.12      -974.833               
    57 r.61                        2             2               
    58 r.62                       -2         -1001               
    59 r.63                 -57.0927      -964.289               
    60 r.64                 -971.549      -971.549               
    61 r.65                  -897.86      -952.104               
    62 r.66                 -3.61315      -971.549               
    63 r.67                  70.0758      -952.104               
    64 r.68                     1001             2               
    65 r.69                    -1001         -1001               
    66 r.70                  3073.69      -980.272               
    67 r.71                     1001             2               
    68 r.72                    -1001         -1001               
    69 r.73                     2000      -971.372               
    70 r.74                     1001             2               
    71 r.75                    -1001         -1001               
    72 r.76                  946.039       28.4512               
    73 r.77                     1001             2               
    74 r.78                    -1001         -1001               
    75 r.79                  2019.73       47.8961               
    76 r.80                        2             2               
    77 r.81                       -2         -1001               
    78 r.82                 -34.0343      -973.123               
    79 r.83                     1000             2               
    80 r.84                    -1000         -1001               
    81 r.85                     2000      -950.417               
    82 r.86                        2             2               
    83 r.87                       -2         -1001               
    84 r.88                 -60.9112      -978.499               
    85 r.89                     1000             2               
    86 r.90                    -1000         -1001               
    87 r.91                  944.921      -972.667               
    88 r.92                     1001             2               
    89 r.93                    -1001         -1001               
    90 r.94                  2009.16      -974.833               
    91 r.95                     1001             2               
    92 r.96                    -1001         -1001               
    93 r.97                  1962.64      -964.289               
    94 r.98                 -917.588      -965.966               
    95 r.99                  82.4119      -953.793               
    96 r.100                 50.3476      -965.966               
    97 r.101                 1050.35      -953.793               
    98 r.102                -980.272      -980.272               
    99 r.103                 19.7282      -971.372               
   100 r.104                -980.272      -980.272               
   101 r.105                 19.7282      -971.372               
   102 r.106                    1001             2               
   103 r.107                   -1001         -1001               
   104 r.108                 1980.07       28.4512               
   105 r.109                    1001             2               
   106 r.110                   -1001         -1001               
   107 r.111                 2019.73       47.8961               
   108 r.112                       2             2               
   109 r.113                      -2         -1001               
   110 r.114                 34.0343       34.0343               
   111 r.115                    1000             2               
   112 r.116                   -1000         -1001               
   113 r.117                    2000        46.207               
   114 r.118                -973.123      -973.123               
   115 r.119                 60.9112      -950.417               
   116 r.120                 21.0449      -973.123               
   117 r.121                 1055.08      -950.417               
   118 r.122                    1001             2               
   119 r.123                   -1001         -1001               
   120 r.124                 2043.19      -974.833               
   121 r.125                    1001             2               
   122 r.126                   -1001         -1001               
   123 r.127                 1962.64      -964.289               
   124 r.128                -951.622      -973.123               
   125 r.129                 82.4119      -950.417               
   126 r.130                 16.3134      -973.123               
   127 r.131                 1050.35      -950.417               
   128 r.132                -946.238      -980.272               
   129 r.133                 53.7625      -971.372               
   130 r.134                -980.272      -980.272               
   131 r.135                 19.7282      -971.372               
   132 r.136                    1001             2               
   133 r.137                   -1001         -1001               
   134 r.138                 1006.95       28.4512               
   135 r.139                    1001             2               
   136 r.140                   -1001         -1001               
   137 r.141                 3074.81       47.8961               
   138 r.142                       2             2               
   139 r.143                      -2         -1001               
   140 r.144                 60.9112       34.0343               
   141 r.145                    1000             2               
   142 r.146                   -1000         -1001               
   143 r.147                 3055.08        46.207               
   144 r.148                    1001             2               
   145 r.149                   -1001         -1001               
   146 r.150                 2070.07      -974.833               
   147 r.151                    1001             2               
   148 r.152                   -1001         -1001               
   149 r.153                 3017.71      -964.289               
   150 r.154                -978.499      -978.499               
   151 r.155                -972.667      -972.667               
   152 r.156                -10.5635      -978.499               
   153 r.157                -4.73151      -972.667               
   154 r.158                -919.361      -980.272               
   155 r.159                 80.6394      -971.372               
   156 r.160                 74.8073      -980.272               
   157 r.161                 1074.81      -971.372               
   158 r.162                    1000             2               
   159 r.163                   -1000         -1001               
   160 r.164                 946.039       28.4512               
   161 r.165                       2             2               
   162 r.166                      -2         -1001               
   163 r.167                 47.8961       47.8961               
   164 r.168                    1001             2               
   165 r.169                   -1001         -1001               
   166 r.170                    2000       34.0343               
   167 r.171                    1001             2               
   168 r.172                   -1001         -1001               
   169 r.173                 2028.17        46.207               
   170 r.174                    1001             2               
   171 r.175                   -1001         -1001               
   172 r.176                 1965.97       26.8769               
   173 r.177                    1001             2               
   174 r.178                   -1001         -1001               
   175 r.179                 2028.17       49.5827               
   176 r.180                    1001             2               
   177 r.181                   -1001         -1001               
   178 r.182                 1939.09       21.5008               
   179 r.183                    1001             2               
   180 r.184                   -1001         -1001               
   181 r.185                 973.089       27.3328               
   182 r.186                 91.5682      -974.833               
   183 r.187                -954.953      -964.289               
   184 r.188                  1059.5      -974.833               
   185 r.189                 12.9832      -964.289               
   186 r.190                -980.272      -980.272               
   187 r.191                 19.7282      -971.372               
   188 r.192                -952.104      -980.272               
   189 r.193                 47.8961      -971.372               
   190 r.194                    1001             2               
   191 r.195                   -1001         -1001               
   192 r.196                 926.311       28.4512               
   193 r.197                    1001             2               
   194 r.198                   -1001         -1001               
   195 r.199                    2000       47.8961               

   No. Column name       Activity     Lower bound   Upper bound
------ ------------    ------------- ------------- -------------
     1 tt                    121.103             0               
     2 s_1_1        *              0             0             1 
     3 t_1_1                 1073.69             0               
     4 s_2_1        *              1             0             1 
     5 t_2_1                       0             0               
     6 s_1_2        *              1             0             1 
     7 t_1_2                 19.7282             0               
     8 s_1_7        *              1             0             1 
     9 s_2_2        *              0             0             1 
    10 t_2_2                 19.7282             0               
    11 s_2_7        *              0             0             1 
    12 s_1_3        *              1             0             1 
    13 t_1_3                 53.7625             0               
    14 s_2_3        *              0             0             1 
    15 t_2_3                 19.7282             0               
    16 s_1_4        *              1             0             1 
    17 t_1_4                 80.6394             0               
    18 s_2_4        *              0             0             1 
    19 t_2_4                 1074.81             0               
    20 s_1_5        *              0             0             1 
    21 t_1_5                 19.7282             0               
    22 s_2_5        *              1             0             1 
    23 t_2_5                 47.8961             0               
    24 s_1_6        *              1             0             1 
    25 t_1_6                  102.14             0               
    26 s_2_6        *              0             0             1 
    27 t_2_6                 1070.08             0               
    28 t_1_7                       0             0               
    29 t_2_7                       0             0               
    30 r_1_1_2      *              1             0             1 
    31 u_1_1_2      *              0             0             1 
    32 r_2_1_2      *              1             0             1 
    33 u_2_1_2      *              0             0             1 
    34 r_1_1_3      *              1             0             1 
    35 u_1_1_3      *              1             0             1 
    36 r_2_1_3      *              1             0             1 
    37 u_2_1_3      *              0             0             1 
    38 r_1_1_4      *              1             0             1 
    39 u_1_1_4      *              0             0             1 
    40 r_2_1_4      *              1             0             1 
    41 u_2_1_4      *              0             0             1 
    42 r_1_1_5      *              1             0             1 
    43 u_1_1_5      *              0             0             1 
    44 r_2_1_5      *              0             0             1 
    45 u_2_1_5      *              0             0             1 
    46 r_1_1_7      *              1             0             1 
    47 u_1_1_7      *              0             0             1 
    48 r_2_1_7      *              1             0             1 
    49 u_2_1_7      *              0             0             1 
    50 r_1_2_3      *              0             0             1 
    51 u_1_2_3      *              0             0             1 
    52 r_2_2_3      *              1             0             1 
    53 u_2_2_3      *              0             0             1 
    54 r_1_2_4      *              0             0             1 
    55 u_1_2_4      *              0             0             1 
    56 r_2_2_4      *              1             0             1 
    57 u_2_2_4      *              0             0             1 
    58 r_1_2_5      *              1             0             1 
    59 u_1_2_5      *              0             0             1 
    60 r_2_2_5      *              1             0             1 
    61 u_2_2_5      *              0             0             1 
    62 r_1_3_5      *              1             0             1 
    63 u_1_3_5      *              0             0             1 
    64 r_2_3_5      *              1             0             1 
    65 u_2_3_5      *              0             0             1 
    66 r_1_4_5      *              1             0             1 
    67 u_1_4_5      *              0             0             1 
    68 r_2_4_5      *              1             0             1 
    69 u_2_4_5      *              0             0             1 

Integer feasibility conditions:

KKT.PE: max.abs.err = 2.27e-13 on row 22
        max.rel.err = 1.06e-16 on row 24
        High quality

KKT.PB: max.abs.err = 1.14e-13 on row 60
        max.rel.err = 1.17e-16 on row 60
        High quality

End of output
